
Log started (V12.10.0.0) Fri Apr  2 17:27:13 2021


Problem 'asset.lp' read.
Read time = 0.00 sec. (0.23 ticks)
New value for default parallel thread count: 1
New value for time limit in seconds: 300
Version identifier: 12.10.0.0 | 2019-11-26 | 843d4de
CPXPARAM_Threads                                 1
CPXPARAM_TimeLimit                               300
Found incumbent of value -0.889378 after 0.00 sec. (0.11 ticks)
Tried aggregator 3 times.
MIP Presolve eliminated 827 rows and 530 columns.
MIP Presolve modified 2181 coefficients.
Aggregator did 612 substitutions.
Reduced MIP has 770 rows, 805 columns, and 3581 nonzeros.
Reduced MIP has 715 binaries, 53 generals, 0 SOSs, and 0 indicators.
Presolve time = 0.01 sec. (8.85 ticks)
Probing fixed 99 vars, tightened 3 bounds.
Probing time = 0.01 sec. (5.01 ticks)
Cover probing fixed 0 vars, tightened 61 bounds.
Tried aggregator 1 time.
MIP Presolve eliminated 106 rows and 105 columns.
MIP Presolve modified 242 coefficients.
Reduced MIP has 664 rows, 700 columns, and 2961 nonzeros.
Reduced MIP has 613 binaries, 50 generals, 0 SOSs, and 0 indicators.
Presolve time = 0.00 sec. (1.72 ticks)
Probing time = 0.00 sec. (2.65 ticks)
Tried aggregator 1 time.
Detecting symmetries...
MIP Presolve modified 206 coefficients.
Reduced MIP has 664 rows, 700 columns, and 2961 nonzeros.
Reduced MIP has 613 binaries, 50 generals, 0 SOSs, and 0 indicators.
Presolve time = 0.00 sec. (2.07 ticks)
Probing time = 0.00 sec. (2.64 ticks)
Clique table members: 2014.
MIP emphasis: balance optimality and feasibility.
MIP search method: dynamic search.
Parallel mode: none, using 1 thread.
Root relaxation solution time = 0.01 sec. (7.40 ticks)

        Nodes                                         Cuts/
   Node  Left     Objective  IInf  Best Integer    Best Bound    ItCnt     Gap

*     0+    0                           -0.8894      398.6493              --- 
      0     0      290.8874   136       -0.8894      290.8874      439     --- 
      0     0      278.6905   136       -0.8894     Cuts: 266      697     --- 
      0     0      275.2955   136       -0.8894     Cuts: 219      999     --- 
      0     0      274.2611   136       -0.8894     Cuts: 235     1202     --- 
      0     0      273.2265   136       -0.8894     Cuts: 175     1332     --- 
      0     0      272.8427   136       -0.8894     Cuts: 158     1433     --- 
Detecting symmetries...
      0     0      272.1054   136       -0.8894     Cuts: 120     1538     --- 
      0     0      271.8195   136       -0.8894      Cuts: 76     1649     --- 
      0     0      271.5016   136       -0.8894      Cuts: 69     1705     --- 
      0     0      270.3264   136       -0.8894      Cuts: 90     1786     --- 
      0     0      269.3843   136       -0.8894     Cuts: 142     1976     --- 
*     0+    0                          178.4020      269.3843            51.00%
      0     0      269.0289   136      178.4020     Cuts: 108     2037   50.80%
      0     0      268.9145   136      178.4020      Cuts: 67     2102   50.74%
      0     0      268.8270   136      178.4020      Cuts: 93     2209   50.69%
      0     0      268.7207   136      178.4020      Cuts: 70     2260   50.63%
      0     0      268.1658   136      178.4020      Cuts: 43     2315   50.32%
      0     0      267.8389   136      178.4020     Cuts: 107     2431   50.13%
      0     0      267.7567   136      178.4020      Cuts: 90     2500   50.09%
      0     0      267.7002   136      178.4020      Cuts: 55     2523   50.05%
      0     0      267.6511   136      178.4020      Cuts: 37     2564   50.03%
      0     0      267.4517   136      178.4020      Cuts: 77     2621   49.92%
      0     0      267.2364   136      178.4020      Cuts: 86     2667   49.79%
      0     0      267.1809   136      178.4020      Cuts: 65     2704   49.76%
Detecting symmetries...
      0     2      267.1809   205      178.4020      267.1476     2704   49.74%
Elapsed time = 0.35 sec. (375.76 ticks, tree = 0.01 MB, solutions = 1)
*    62    57      integral     0      187.5752      265.8825     5870   41.75%
    113    89      189.1923    29      187.5752      264.8571     8281   41.20%
    228   192      201.4931    99      187.5752      264.7719    14777   41.16%
    278   237      237.8441    81      187.5752      264.5642    20902   41.04%
*   350+  260                          190.9719      264.5564            38.53%
    430   336      195.6370    63      190.9719      264.0096    26764   38.25%
*   450+  334                          192.0322      263.3317            37.13%
*   450+  334                          192.0337      263.3317            37.13%

Performing restart 1

Repeating presolve.
Tried aggregator 2 times.
MIP Presolve modified 472 coefficients.
Aggregator did 6 substitutions.
Reduced MIP has 658 rows, 694 columns, and 2581 nonzeros.
Reduced MIP has 607 binaries, 50 generals, 0 SOSs, and 0 indicators.
Presolve time = 0.00 sec. (3.25 ticks)
Tried aggregator 1 time.
Reduced MIP has 658 rows, 694 columns, and 2581 nonzeros.
Reduced MIP has 607 binaries, 50 generals, 0 SOSs, and 0 indicators.
Presolve time = 0.00 sec. (1.97 ticks)
Represolve time = 0.02 sec. (14.59 ticks)
    560     0      227.5367   152      192.0337     Cuts: 264    34118   18.49%
    560     0      218.8187   152      192.0337     Cuts: 197    34322   13.95%
    560     0      217.0673   152      192.0337     Cuts: 140    34468   13.04%
    560     0      216.6335   152      192.0337      Cuts: 98    34581   12.81%
    560     0      215.0809   152      192.0337      Cuts: 76    34650   12.00%
    560     0      213.7816   152      192.0337      Cuts: 68    34738   11.33%
    560     0      213.1827   152      192.0337      Cuts: 95    34878   11.01%
    560     0      212.0628   152      192.0337      Cuts: 86    35014   10.43%
*   560+    0                          192.0338      212.0628            10.43%
    560     0      211.7532   152      192.0338      Cuts: 84    35115   10.27%
    560     0      211.4218   152      192.0338      Cuts: 66    35256   10.10%
    560     0      211.2251   152      192.0338      Cuts: 46    35329    9.99%
    560     0      211.1864   152      192.0338      Cuts: 36    35466    9.97%
    560     0      211.1136   152      192.0338      Cuts: 34    35527    9.94%
    560     0      211.0029   152      192.0338      Cuts: 26    35583    9.88%
    560     0      210.9807   152      192.0338      Cuts: 29    35633    9.87%
    560     0      210.9264   152      192.0338      Cuts: 27    35697    9.84%
    560     0      210.8322   152      192.0338      Cuts: 60    35811    9.79%
    560     0      210.8259   152      192.0338      Cuts: 30    35843    9.79%
    560     0      210.6361   152      192.0338      Cuts: 26    35888    9.69%
    560     0      210.6277   152      192.0338      Cuts: 33    35929    9.68%
    560     0      210.6266   152      192.0338      Cuts: 20    35946    9.68%
    560     0      210.6117   152      192.0338       Cuts: 9    35996    9.67%
*   560+    0                          201.6539      210.6117             4.44%
*   560+    0                          201.6567      210.6117             4.44%
    560     2      210.6117   132      201.6567      210.6019    35996    4.44%
    564     5      209.5511   102      201.6567      209.5282    36278    3.90%
    570    11      208.8220    66      201.6567      208.9959    36706    3.64%
    582    21      205.1835    83      201.6567      208.9959    37512    3.64%
*   600+   23                          203.5952      208.6857             2.50%
*   600+   23                          203.5954      208.6857             2.50%
*   620+   24                          204.5250      208.2335             1.81%
*   620+   24                          204.5266      208.2335             1.81%
    640    26      204.7599    54      204.5266      207.1337    39596    1.27%
*   660+   12                          206.0843      206.2355             0.07%

GUB cover cuts applied:  2
Clique cuts applied:  102
Cover cuts applied:  7
Implied bound cuts applied:  49
Flow cuts applied:  11
Mixed integer rounding cuts applied:  26
Zero-half cuts applied:  35
Lift and project cuts applied:  10
Gomory fractional cuts applied:  7

Root node processing (before b&c):
  Real time             =    0.35 sec. (375.97 ticks)
Sequential b&c:
  Real time             =    3.19 sec. (3721.43 ticks)
                          ------------
Total (root+branch&cut) =    3.54 sec. (4097.40 ticks)

Solution pool: 14 solutions saved.

MIP - Integer optimal, tolerance (0.0001/1e-06):  Objective =  2.0608431830e+02
Current MIP best bound =  2.0609065774e+02 (gap = 0.00633944, 0.00%)
Solution time =    3.54 sec.  Iterations = 40152  Nodes = 668 (8)
Deterministic time = 4097.40 ticks  (1156.38 ticks/sec)


Incumbent solution
Variable Name           Solution Value
F                           220.000000
f1                            0.915682
f2                           13.000000
y21                           1.000000
y82                           1.000000
y190                          1.000000
y18                           1.000000
y198                          1.000000
y66                           1.000000
y240                          1.000000
y173                          1.000000
y238                          1.000000
y197                          1.000000
y186                          1.000000
y106                          1.000000
y180                          1.000000
s2                            6.000000
s21                           6.563365
s44                           6.000000
s46                           6.000000
s70                           6.000000
s80                           6.000000
s82                           6.432115
s90                           6.000000
s109                          6.000000
s115                          6.000000
s120                          6.000000
s126                          6.000000
s172                          6.000000
s179                          6.000000
s204                          6.000000
s206                          6.000000
s214                          6.000000
s222                          6.000000
s264                          6.000000
s105                          6.010000
s5                            6.210000
s190                          6.989096
s84                           6.230000
s137                          6.280000
s178                          6.280000
s135                          6.290000
s73                           6.470000
s64                           6.540000
s18                           7.539564
s198                          7.216298
s66                           7.777046
s240                          6.840000
s33                           6.860000
s122                          6.890000
s173                          7.568654
s238                          7.586093
s145                          6.920000
s197                          7.734173
s19                           6.970000
s25                           6.980000
s186                          7.960185
s106                          8.005597
s210                          7.070000
s257                          7.090000
s61                           7.100000
s216                          7.150000
s177                          7.200000
s180                          8.189540
x243x82x1                     1.000000
x27x21x1                      1.000000
x27x190x1                     1.000000
x20x197x1                     1.000000
x110x18x1                     1.000000
x9x18x1                       1.000000
x9x173x1                      1.000000
x248x82x1                     1.000000
x243x21x2                     1.000000
x7x190x2                      1.000000
x20x106x2                     1.000000
x256x173x2                    1.000000
x110x238x2                    1.000000
x196x198x2                    1.000000
x266x240x3                    2.000000
x7x198x3                      1.000000
x256x197x3                    1.000000
x196x238x3                    1.000000
x21x180x1                     1.000000
x21x186x2                     1.000000
x82x66x1                      2.000000
x190x180x1                    1.000000
x190x0x2                      1.000000
x18x0x1                       2.000000
x198x0x2                      1.000000
x198x0x3                      1.000000
x66x0x1                       2.000000
x240x186x3                    1.000000
x240x106x3                    1.000000
x173x0x1                      1.000000
x173x0x2                      1.000000
x238x0x2                      1.000000
x238x0x3                      1.000000
x197x0x1                      1.000000
x197x0x3                      1.000000
x186x0x2                      1.000000
x186x0x3                      1.000000
x106x0x2                      1.000000
x106x0x3                      1.000000
x180x0x1                      2.000000
s243                          5.029508
z243z21z2                     1.000000
z243z82z1                     1.000000
z243z66z1                     1.000000
z243z257z1                    1.000000
z243z61z2                     1.000000
z243z177z2                    1.000000
z243z180z1                    1.000000
s27                           5.128712
z27z21z1                      1.000000
z27z190z1                     1.000000
z27z18z1                      1.000000
z27z257z1                     1.000000
z27z180z1                     1.000000
s266                          5.020673
z266z240z3                    1.000000
z266z145z3                    1.000000
z266z25z3                     1.000000
z266z216z3                    1.000000
s7                            5.368546
z7z190z2                      1.000000
z7z198z3                      1.000000
z7z177z2                      1.000000
s20                           5.980405
z20z197z1                     1.000000
z20z106z2                     1.000000
s256                          5.913921
z256z173z2                    1.000000
z256z197z3                    1.000000
s110                          5.870000
z110z18z1                     1.000000
z110z238z2                    1.000000
s196                          5.945470
z196z198z2                    1.000000
z196z238z3                    1.000000
s9                            5.985219
z9z18z1                       1.000000
z9z66z1                       1.000000
z9z173z1                      1.000000
s248                          4.406260
z248z82z1                     1.000000
z248z66z1                     1.000000
z248z257z1                    1.000000
z248z180z1                    1.000000
z21z186z2                     1.000000
z21z180z1                     1.000000
z82z66z1                      1.000000
z82z180z1                     1.000000
z190z180z1                    1.000000
z240z186z3                    1.000000
z240z106z3                    1.000000
All other variables in the range 1-1952 are 0.
